\ LP format - for model browsing. Use MPS format to capture full model detail.
Minimize
  cmax + 0 B_1_1_1_2_1_2 + 0 B_1_1_1_2_1_3 + 0 B_1_1_1_2_2_2
   + 0 B_1_1_1_3_1_2 + 0 B_1_1_1_3_1_3 + 0 B_1_1_2_2_1_1 + 0 B_1_1_2_2_1_3
   + 0 B_1_1_2_2_2_1 + 0 B_1_1_2_3_1_1 + 0 B_1_1_2_3_1_3 + 0 B_1_1_3_2_1_1
   + 0 B_1_1_3_2_1_2 + 0 B_1_1_3_2_2_1 + 0 B_1_1_3_2_2_2 + 0 B_1_1_3_3_1_1
   + 0 B_1_1_3_3_1_2 + 0 B_1_2_1_2_1_2 + 0 B_1_2_1_2_1_3 + 0 B_1_2_1_2_2_2
   + 0 B_1_2_1_3_1_2 + 0 B_1_2_1_3_1_3 + 0 B_1_2_2_2_1_1 + 0 B_1_2_2_2_1_3
   + 0 B_1_2_2_2_2_1 + 0 B_1_2_2_3_1_1 + 0 B_1_2_2_3_1_3 + 0 B_2_1_1_1_1_1
   + 0 B_2_1_1_1_1_2 + 0 B_2_1_1_1_1_3 + 0 B_2_1_1_1_2_1 + 0 B_2_1_1_1_2_2
   + 0 B_2_1_1_3_1_2 + 0 B_2_1_1_3_1_3 + 0 B_2_1_2_1_1_1 + 0 B_2_1_2_1_1_2
   + 0 B_2_1_2_1_1_3 + 0 B_2_1_2_1_2_1 + 0 B_2_1_2_1_2_2 + 0 B_2_1_2_3_1_1
   + 0 B_2_1_2_3_1_3 + 0 B_2_1_3_1_1_1 + 0 B_2_1_3_1_1_2 + 0 B_2_1_3_1_1_3
   + 0 B_2_1_3_1_2_1 + 0 B_2_1_3_1_2_2 + 0 B_2_1_3_3_1_1 + 0 B_2_1_3_3_1_2
   + 0 B_2_2_1_1_1_1 + 0 B_2_2_1_1_1_2 + 0 B_2_2_1_1_1_3 + 0 B_2_2_1_1_2_1
   + 0 B_2_2_1_1_2_2 + 0 B_2_2_1_3_1_2 + 0 B_2_2_1_3_1_3 + 0 B_2_2_2_1_1_1
   + 0 B_2_2_2_1_1_2 + 0 B_2_2_2_1_1_3 + 0 B_2_2_2_1_2_1 + 0 B_2_2_2_1_2_2
   + 0 B_2_2_2_3_1_1 + 0 B_2_2_2_3_1_3 + 0 B_3_1_1_1_1_1 + 0 B_3_1_1_1_1_2
   + 0 B_3_1_1_1_1_3 + 0 B_3_1_1_1_2_1 + 0 B_3_1_1_1_2_2 + 0 B_3_1_1_2_1_1
   + 0 B_3_1_1_2_1_2 + 0 B_3_1_1_2_1_3 + 0 B_3_1_1_2_2_1 + 0 B_3_1_1_2_2_2
   + 0 B_3_1_2_1_1_1 + 0 B_3_1_2_1_1_2 + 0 B_3_1_2_1_1_3 + 0 B_3_1_2_1_2_1
   + 0 B_3_1_2_1_2_2 + 0 B_3_1_2_2_1_1 + 0 B_3_1_2_2_1_2 + 0 B_3_1_2_2_1_3
   + 0 B_3_1_2_2_2_1 + 0 B_3_1_2_2_2_2 + 0 B_3_1_3_1_1_1 + 0 B_3_1_3_1_1_2
   + 0 B_3_1_3_1_1_3 + 0 B_3_1_3_1_2_1 + 0 B_3_1_3_1_2_2 + 0 B_3_1_3_2_1_1
   + 0 B_3_1_3_2_1_2 + 0 B_3_1_3_2_1_3 + 0 B_3_1_3_2_2_1 + 0 B_3_1_3_2_2_2
Subject To
 NB2[1,1,1]: - x_1_1 + a_1_1_1_0 + a_1_1_1_1 = 0
 NB2[1,1,2]: - x_1_1 + a_1_1_2_2 + a_1_1_2_3 = 0
 NB2[1,1,3]: - x_1_1 + a_1_1_3_4 + a_1_1_3_5 = 0
 NB2[1,2,1]: - x_1_2 + a_1_2_1_0 + a_1_2_1_1 = 0
 NB2[1,2,2]: - x_1_2 + a_1_2_2_2 + a_1_2_2_3 = 0
 NB2[2,1,1]: - x_2_1 + a_2_1_1_0 + a_2_1_1_1 = 0
 NB2[2,1,2]: - x_2_1 + a_2_1_2_2 + a_2_1_2_3 = 0
 NB2[2,1,3]: - x_2_1 + a_2_1_3_4 + a_2_1_3_5 = 0
 NB2[2,2,1]: - x_2_2 + a_2_2_1_0 = 0
 NB2[2,2,2]: - x_2_2 + a_2_2_2_2 = 0
 NB2[3,1,1]: - x_3_1 + a_3_1_1_0 + a_3_1_1_1 = 0
 NB2[3,1,2]: - x_3_1 + a_3_1_2_2 + a_3_1_2_3 = 0
 NB2[3,1,3]: - x_3_1 + a_3_1_3_4 + a_3_1_3_5 = 0
 NB3[1,1,2]: - t_1_1_1 + t_1_1_2 - 2 a_1_1_1_0 - 4 a_1_1_1_1 >= 0
 NB3[1,1,3]: - t_1_1_2 + t_1_1_3 - 2 a_1_1_2_2 - 4 a_1_1_2_3 >= 0
 NB3[1,2,2]: - t_1_2_1 + t_1_2_2 - 10 a_1_2_1_0 - 10 a_1_2_1_1 >= 0
 NB3[2,1,2]: - t_2_1_1 + t_2_1_2 - 4 a_2_1_1_0 - 2 a_2_1_1_1 >= 0
 NB3[2,1,3]: - t_2_1_2 + t_2_1_3 - 4 a_2_1_2_2 - 2 a_2_1_2_3 >= 0
 NB3[2,2,2]: - t_2_2_1 + t_2_2_2 - 15 a_2_2_1_0 >= 0
 NB3[3,1,2]: - t_3_1_1 + t_3_1_2 - 5 a_3_1_1_0 - 5 a_3_1_1_1 >= 0
 NB3[3,1,3]: - t_3_1_2 + t_3_1_3 - a_3_1_2_2 - a_3_1_2_3 >= 0
 NB4: - t_1_1_1 + t_2_1_1 - 87 a_1_1_1_0 - 87 a_2_1_1_0 - 87 B_1_1_1_2_1_1
   >= -259
 NB5: t_1_1_1 - t_2_1_1 - 87 a_1_1_1_0 - 87 a_2_1_1_0 + 87 B_1_1_1_2_1_1
   >= -170
 NB4: - t_1_1_1 + t_2_1_1 - 87 a_1_1_1_1 - 87 a_2_1_1_1 - 87 B_1_1_1_2_1_1
   >= -257
 NB5: t_1_1_1 - t_2_1_1 - 87 a_1_1_1_1 - 87 a_2_1_1_1 + 87 B_1_1_1_2_1_1
   >= -172
 NB4: - t_1_1_2 + t_2_1_2 - 87 a_1_1_2_2 - 87 a_2_1_2_2 - 87 B_1_1_2_2_1_2
   >= -259
 NB5: t_1_1_2 - t_2_1_2 - 87 a_1_1_2_2 - 87 a_2_1_2_2 + 87 B_1_1_2_2_1_2
   >= -170
 NB4: - t_1_1_2 + t_2_1_2 - 87 a_1_1_2_3 - 87 a_2_1_2_3 - 87 B_1_1_2_2_1_2
   >= -257
 NB5: t_1_1_2 - t_2_1_2 - 87 a_1_1_2_3 - 87 a_2_1_2_3 + 87 B_1_1_2_2_1_2
   >= -172
 NB4: - t_1_1_3 + t_2_1_3 - 87 a_1_1_3_4 - 87 a_2_1_3_4 - 87 B_1_1_3_2_1_3
   >= -259
 NB5: t_1_1_3 - t_2_1_3 - 87 a_1_1_3_4 - 87 a_2_1_3_4 + 87 B_1_1_3_2_1_3
   >= -170
 NB4: - t_1_1_3 + t_2_1_3 - 87 a_1_1_3_5 - 87 a_2_1_3_5 - 87 B_1_1_3_2_1_3
   >= -257
 NB5: t_1_1_3 - t_2_1_3 - 87 a_1_1_3_5 - 87 a_2_1_3_5 + 87 B_1_1_3_2_1_3
   >= -172
 NB4: - t_1_1_1 + t_2_2_1 - 87 a_1_1_1_0 - 87 a_2_2_1_0 - 87 B_1_1_1_2_2_1
   >= -259
 NB5: t_1_1_1 - t_2_2_1 - 87 a_1_1_1_0 - 87 a_2_2_1_0 + 87 B_1_1_1_2_2_1
   >= -159
 NB4: - t_1_1_2 + t_2_2_2 - 87 a_1_1_2_2 - 87 a_2_2_2_2 - 87 B_1_1_2_2_2_2
   >= -259
 NB5: t_1_1_2 - t_2_2_2 - 87 a_1_1_2_2 - 87 a_2_2_2_2 + 87 B_1_1_2_2_2_2
   >= -159
 NB4: - t_1_2_1 + t_2_1_1 - 87 a_1_2_1_0 - 87 a_2_1_1_0 - 87 B_1_2_1_2_1_1
   >= -251
 NB5: t_1_2_1 - t_2_1_1 - 87 a_1_2_1_0 - 87 a_2_1_1_0 + 87 B_1_2_1_2_1_1
   >= -170
 NB4: - t_1_2_1 + t_2_1_1 - 87 a_1_2_1_1 - 87 a_2_1_1_1 - 87 B_1_2_1_2_1_1
   >= -251
 NB5: t_1_2_1 - t_2_1_1 - 87 a_1_2_1_1 - 87 a_2_1_1_1 + 87 B_1_2_1_2_1_1
   >= -172
 NB4: - t_1_2_2 + t_2_1_2 - 87 a_1_2_2_2 - 87 a_2_1_2_2 - 87 B_1_2_2_2_1_2
   >= -251
 NB5: t_1_2_2 - t_2_1_2 - 87 a_1_2_2_2 - 87 a_2_1_2_2 + 87 B_1_2_2_2_1_2
   >= -170
 NB4: - t_1_2_2 + t_2_1_2 - 87 a_1_2_2_3 - 87 a_2_1_2_3 - 87 B_1_2_2_2_1_2
   >= -251
 NB5: t_1_2_2 - t_2_1_2 - 87 a_1_2_2_3 - 87 a_2_1_2_3 + 87 B_1_2_2_2_1_2
   >= -172
 NB4: - t_1_2_1 + t_2_2_1 - 87 a_1_2_1_0 - 87 a_2_2_1_0 - 87 B_1_2_1_2_2_1
   >= -251
 NB5: t_1_2_1 - t_2_2_1 - 87 a_1_2_1_0 - 87 a_2_2_1_0 + 87 B_1_2_1_2_2_1
   >= -159
 NB4: - t_1_2_2 + t_2_2_2 - 87 a_1_2_2_2 - 87 a_2_2_2_2 - 87 B_1_2_2_2_2_2
   >= -251
 NB5: t_1_2_2 - t_2_2_2 - 87 a_1_2_2_2 - 87 a_2_2_2_2 + 87 B_1_2_2_2_2_2
   >= -159
 NB4: - t_1_1_1 + t_3_1_1 - 87 a_1_1_1_0 - 87 a_3_1_1_0 - 87 B_1_1_1_3_1_1
   >= -259
 NB5: t_1_1_1 - t_3_1_1 - 87 a_1_1_1_0 - 87 a_3_1_1_0 + 87 B_1_1_1_3_1_1
   >= -169
 NB4: - t_1_1_1 + t_3_1_1 - 87 a_1_1_1_1 - 87 a_3_1_1_1 - 87 B_1_1_1_3_1_1
   >= -257
 NB5: t_1_1_1 - t_3_1_1 - 87 a_1_1_1_1 - 87 a_3_1_1_1 + 87 B_1_1_1_3_1_1
   >= -169
 NB4: - t_1_1_2 + t_3_1_2 - 87 a_1_1_2_2 - 87 a_3_1_2_2 - 87 B_1_1_2_3_1_2
   >= -259
 NB5: t_1_1_2 - t_3_1_2 - 87 a_1_1_2_2 - 87 a_3_1_2_2 + 87 B_1_1_2_3_1_2
   >= -173
 NB4: - t_1_1_2 + t_3_1_2 - 87 a_1_1_2_3 - 87 a_3_1_2_3 - 87 B_1_1_2_3_1_2
   >= -257
 NB5: t_1_1_2 - t_3_1_2 - 87 a_1_1_2_3 - 87 a_3_1_2_3 + 87 B_1_1_2_3_1_2
   >= -173
 NB4: - t_1_1_3 + t_3_1_3 - 87 a_1_1_3_4 - 87 a_3_1_3_4 - 87 B_1_1_3_3_1_3
   >= -259
 NB5: t_1_1_3 - t_3_1_3 - 87 a_1_1_3_4 - 87 a_3_1_3_4 + 87 B_1_1_3_3_1_3
   >= -167
 NB4: - t_1_1_3 + t_3_1_3 - 87 a_1_1_3_5 - 87 a_3_1_3_5 - 87 B_1_1_3_3_1_3
   >= -257
 NB5: t_1_1_3 - t_3_1_3 - 87 a_1_1_3_5 - 87 a_3_1_3_5 + 87 B_1_1_3_3_1_3
   >= -167
 NB4: - t_1_2_1 + t_3_1_1 - 87 a_1_2_1_0 - 87 a_3_1_1_0 - 87 B_1_2_1_3_1_1
   >= -251
 NB5: t_1_2_1 - t_3_1_1 - 87 a_1_2_1_0 - 87 a_3_1_1_0 + 87 B_1_2_1_3_1_1
   >= -169
 NB4: - t_1_2_1 + t_3_1_1 - 87 a_1_2_1_1 - 87 a_3_1_1_1 - 87 B_1_2_1_3_1_1
   >= -251
 NB5: t_1_2_1 - t_3_1_1 - 87 a_1_2_1_1 - 87 a_3_1_1_1 + 87 B_1_2_1_3_1_1
   >= -169
 NB4: - t_1_2_2 + t_3_1_2 - 87 a_1_2_2_2 - 87 a_3_1_2_2 - 87 B_1_2_2_3_1_2
   >= -251
 NB5: t_1_2_2 - t_3_1_2 - 87 a_1_2_2_2 - 87 a_3_1_2_2 + 87 B_1_2_2_3_1_2
   >= -173
 NB4: - t_1_2_2 + t_3_1_2 - 87 a_1_2_2_3 - 87 a_3_1_2_3 - 87 B_1_2_2_3_1_2
   >= -251
 NB5: t_1_2_2 - t_3_1_2 - 87 a_1_2_2_3 - 87 a_3_1_2_3 + 87 B_1_2_2_3_1_2
   >= -173
 NB4: - t_2_1_1 + t_3_1_1 - 87 a_2_1_1_0 - 87 a_3_1_1_0 - 87 B_2_1_1_3_1_1
   >= -257
 NB5: t_2_1_1 - t_3_1_1 - 87 a_2_1_1_0 - 87 a_3_1_1_0 + 87 B_2_1_1_3_1_1
   >= -169
 NB4: - t_2_1_1 + t_3_1_1 - 87 a_2_1_1_1 - 87 a_3_1_1_1 - 87 B_2_1_1_3_1_1
   >= -259
 NB5: t_2_1_1 - t_3_1_1 - 87 a_2_1_1_1 - 87 a_3_1_1_1 + 87 B_2_1_1_3_1_1
   >= -169
 NB4: - t_2_1_2 + t_3_1_2 - 87 a_2_1_2_2 - 87 a_3_1_2_2 - 87 B_2_1_2_3_1_2
   >= -257
 NB5: t_2_1_2 - t_3_1_2 - 87 a_2_1_2_2 - 87 a_3_1_2_2 + 87 B_2_1_2_3_1_2
   >= -173
 NB4: - t_2_1_2 + t_3_1_2 - 87 a_2_1_2_3 - 87 a_3_1_2_3 - 87 B_2_1_2_3_1_2
   >= -259
 NB5: t_2_1_2 - t_3_1_2 - 87 a_2_1_2_3 - 87 a_3_1_2_3 + 87 B_2_1_2_3_1_2
   >= -173
 NB4: - t_2_1_3 + t_3_1_3 - 87 a_2_1_3_4 - 87 a_3_1_3_4 - 87 B_2_1_3_3_1_3
   >= -257
 NB5: t_2_1_3 - t_3_1_3 - 87 a_2_1_3_4 - 87 a_3_1_3_4 + 87 B_2_1_3_3_1_3
   >= -167
 NB4: - t_2_1_3 + t_3_1_3 - 87 a_2_1_3_5 - 87 a_3_1_3_5 - 87 B_2_1_3_3_1_3
   >= -259
 NB5: t_2_1_3 - t_3_1_3 - 87 a_2_1_3_5 - 87 a_3_1_3_5 + 87 B_2_1_3_3_1_3
   >= -167
 NB4: - t_2_2_1 + t_3_1_1 - 87 a_2_2_1_0 - 87 a_3_1_1_0 - 87 B_2_2_1_3_1_1
   >= -246
 NB5: t_2_2_1 - t_3_1_1 - 87 a_2_2_1_0 - 87 a_3_1_1_0 + 87 B_2_2_1_3_1_1
   >= -169
 NB4: - t_2_2_2 + t_3_1_2 - 87 a_2_2_2_2 - 87 a_3_1_2_2 - 87 B_2_2_2_3_1_2
   >= -246
 NB5: t_2_2_2 - t_3_1_2 - 87 a_2_2_2_2 - 87 a_3_1_2_2 + 87 B_2_2_2_3_1_2
   >= -173
 NB6[1,1]: cmax - t_1_1_3 - 2 a_1_1_3_4 - 4 a_1_1_3_5 >= 0
 NB6[1,2]: cmax - t_1_2_2 - 10 a_1_2_2_2 - 10 a_1_2_2_3 >= 0
 NB6[2,1]: cmax - t_2_1_3 - 4 a_2_1_3_4 - 2 a_2_1_3_5 >= 0
 NB6[2,2]: cmax - t_2_2_2 - 15 a_2_2_2_2 >= 0
 NB6[3,1]: cmax - t_3_1_3 - 7 a_3_1_3_4 - 7 a_3_1_3_5 >= 0
 NB7[1]: x_1_1 + x_1_2 = 1
 NB7[2]: x_2_1 + x_2_2 = 1
 NB7[3]: x_3_1 = 1
 NB8[1,1,1]: - 87 x_1_1 + t_1_1_1 <= 0
 NB8[1,1,2]: - 87 x_1_1 + t_1_1_2 <= 0
 NB8[1,1,3]: - 87 x_1_1 + t_1_1_3 <= 0
 NB8[1,2,1]: - 87 x_1_2 + t_1_2_1 <= 0
 NB8[1,2,2]: - 87 x_1_2 + t_1_2_2 <= 0
 NB8[2,1,1]: - 87 x_2_1 + t_2_1_1 <= 0
 NB8[2,1,2]: - 87 x_2_1 + t_2_1_2 <= 0
 NB8[2,1,3]: - 87 x_2_1 + t_2_1_3 <= 0
 NB8[2,2,1]: - 87 x_2_2 + t_2_2_1 <= 0
 NB8[2,2,2]: - 87 x_2_2 + t_2_2_2 <= 0
 NB8[3,1,1]: - 87 x_3_1 + t_3_1_1 <= 0
 NB8[3,1,2]: - 87 x_3_1 + t_3_1_2 <= 0
 NB8[3,1,3]: - 87 x_3_1 + t_3_1_3 <= 0
Bounds
Binaries
 x_1_1 x_1_2 x_2_1 x_2_2 x_3_1 a_1_1_1_0 a_1_1_1_1 a_1_1_2_2 a_1_1_2_3
 a_1_1_3_4 a_1_1_3_5 a_1_2_1_0 a_1_2_1_1 a_1_2_2_2 a_1_2_2_3 a_2_1_1_0
 a_2_1_1_1 a_2_1_2_2 a_2_1_2_3 a_2_1_3_4 a_2_1_3_5 a_2_2_1_0 a_2_2_2_2
 a_3_1_1_0 a_3_1_1_1 a_3_1_2_2 a_3_1_2_3 a_3_1_3_4 a_3_1_3_5 B_1_1_1_2_1_1
 B_1_1_1_2_1_2 B_1_1_1_2_1_3 B_1_1_1_2_2_1 B_1_1_1_2_2_2 B_1_1_1_3_1_1
 B_1_1_1_3_1_2 B_1_1_1_3_1_3 B_1_1_2_2_1_1 B_1_1_2_2_1_2 B_1_1_2_2_1_3
 B_1_1_2_2_2_1 B_1_1_2_2_2_2 B_1_1_2_3_1_1 B_1_1_2_3_1_2 B_1_1_2_3_1_3
 B_1_1_3_2_1_1 B_1_1_3_2_1_2 B_1_1_3_2_1_3 B_1_1_3_2_2_1 B_1_1_3_2_2_2
 B_1_1_3_3_1_1 B_1_1_3_3_1_2 B_1_1_3_3_1_3 B_1_2_1_2_1_1 B_1_2_1_2_1_2
 B_1_2_1_2_1_3 B_1_2_1_2_2_1 B_1_2_1_2_2_2 B_1_2_1_3_1_1 B_1_2_1_3_1_2
 B_1_2_1_3_1_3 B_1_2_2_2_1_1 B_1_2_2_2_1_2 B_1_2_2_2_1_3 B_1_2_2_2_2_1
 B_1_2_2_2_2_2 B_1_2_2_3_1_1 B_1_2_2_3_1_2 B_1_2_2_3_1_3 B_2_1_1_1_1_1
 B_2_1_1_1_1_2 B_2_1_1_1_1_3 B_2_1_1_1_2_1 B_2_1_1_1_2_2 B_2_1_1_3_1_1
 B_2_1_1_3_1_2 B_2_1_1_3_1_3 B_2_1_2_1_1_1 B_2_1_2_1_1_2 B_2_1_2_1_1_3
 B_2_1_2_1_2_1 B_2_1_2_1_2_2 B_2_1_2_3_1_1 B_2_1_2_3_1_2 B_2_1_2_3_1_3
 B_2_1_3_1_1_1 B_2_1_3_1_1_2 B_2_1_3_1_1_3 B_2_1_3_1_2_1 B_2_1_3_1_2_2
 B_2_1_3_3_1_1 B_2_1_3_3_1_2 B_2_1_3_3_1_3 B_2_2_1_1_1_1 B_2_2_1_1_1_2
 B_2_2_1_1_1_3 B_2_2_1_1_2_1 B_2_2_1_1_2_2 B_2_2_1_3_1_1 B_2_2_1_3_1_2
 B_2_2_1_3_1_3 B_2_2_2_1_1_1 B_2_2_2_1_1_2 B_2_2_2_1_1_3 B_2_2_2_1_2_1
 B_2_2_2_1_2_2 B_2_2_2_3_1_1 B_2_2_2_3_1_2 B_2_2_2_3_1_3 B_3_1_1_1_1_1
 B_3_1_1_1_1_2 B_3_1_1_1_1_3 B_3_1_1_1_2_1 B_3_1_1_1_2_2 B_3_1_1_2_1_1
 B_3_1_1_2_1_2 B_3_1_1_2_1_3 B_3_1_1_2_2_1 B_3_1_1_2_2_2 B_3_1_2_1_1_1
 B_3_1_2_1_1_2 B_3_1_2_1_1_3 B_3_1_2_1_2_1 B_3_1_2_1_2_2 B_3_1_2_2_1_1
 B_3_1_2_2_1_2 B_3_1_2_2_1_3 B_3_1_2_2_2_1 B_3_1_2_2_2_2 B_3_1_3_1_1_1
 B_3_1_3_1_1_2 B_3_1_3_1_1_3 B_3_1_3_1_2_1 B_3_1_3_1_2_2 B_3_1_3_2_1_1
 B_3_1_3_2_1_2 B_3_1_3_2_1_3 B_3_1_3_2_2_1 B_3_1_3_2_2_2
End
